38
1 0 15
2 0 26
2 1 30
3 0 16
3 1 13
3 2 31
4 0 34
4 1 19
4 2 3
4 3 17
5 0 18
5 1 20
5 2 4
5 3 19
5 4 44
6 0 21
6 1 45
6 2 50
6 3 16
6 4 45
6 5 6
7 0 18
7 1 43
7 2 2
7 3 39
7 4 26
7 5 17
7 6 9
8 0 17
8 1 42
8 2 40
8 3 35
8 4 33
8 5 16
8 6 43
8 7 38
9 0 5
9 1 6
9 2 46
9 3 20
9 4 41
9 5 24
9 6 31
9 7 48
9 8 50
10 0 23
10 1 12
10 2 15
10 3 17
10 4 23
10 5 30
10 6 29
10 7 10
10 8 23
10 9 48
11 0 49
11 1 15
11 2 16
11 3 43
11 4 36
11 5 31
11 6 26
11 7 44
11 8 40
11 9 8
11 10 19
12 0 36
12 1 44
12 2 29
12 3 32
12 4 16
12 5 41
12 6 40
12 7 28
12 8 30
12 9 47
12 10 19
12 11 22
13 0 10
13 1 1
13 2 42
13 3 46
13 4 18
13 5 27
13 6 23
13 7 25
13 8 32
13 9 46
13 10 25
13 11 7
13 12 18
14 0 15
14 1 12
14 2 43
14 3 32
14 4 28
14 5 41
14 6 48
14 7 41
14 8 23
14 9 32
14 10 42
14 11 14
14 12 48
14 13 25
15 0 36
15 1 5
15 2 19
15 3 19
15 4 1
15 5 5
15 6 37
15 7 42
15 8 40
15 9 7
15 10 22
15 11 42
15 12 34
15 13 44
15 14 18
16 0 26
16 1 8
16 2 45
16 3 38
16 4 42
16 5 12
16 6 32
16 7 31
16 8 28
16 9 41
16 10 46
16 11 20
16 12 37
16 13 7
16 14 8
16 15 25
17 0 39
17 1 16
17 2 43
17 3 17
17 4 32
17 5 42
17 6 25
17 7 23
17 8 37
17 9 18
17 10 14
17 11 43
17 12 46
17 13 14
17 14 9
17 15 8
17 16 5
18 0 6
18 1 12
18 2 43
18 3 38
18 4 13
18 5 16
18 6 16
18 7 18
18 8 47
18 9 12
18 10 24
18 11 8
18 12 22
18 13 25
18 14 17
18 15 13
18 16 36
18 17 46
19 0 35
19 1 38
19 2 14
19 3 27
19 4 44
19 5 12
19 6 28
19 7 9
19 8 8
19 9 9
19 10 27
19 11 47
19 12 11
19 13 38
19 14 7
19 15 50
19 16 1
19 17 18
19 18 34
20 0 14
20 1 31
20 2 35
20 3 21
20 4 34
20 5 4
20 6 12
20 7 46
20 8 17
20 9 20
20 10 26
20 11 50
20 12 41
20 13 46
20 14 22
20 15 5
20 16 8
20 17 6
20 18 30
20 19 40
21 0 29
21 1 11
21 2 18
21 3 14
21 4 36
21 5 18
21 6 10
21 7 24
21 8 49
21 9 8
21 10 13
21 11 4
21 12 32
21 13 37
21 14 33
21 15 8
21 16 10
21 17 1
21 18 32
21 19 41
21 20 28
22 0 16
22 1 20
22 2 38
22 3 46
22 4 41
22 5 41
22 6 21
22 7 21
22 8 23
22 9 45
22 10 34
22 11 45
22 12 12
22 13 36
22 14 42
22 15 23
22 16 3
22 17 25
22 18 16
22 19 21
22 20 22
22 21 34
23 0 36
23 1 10
23 2 50
23 3 20
23 4 36
23 5 48
23 6 14
23 7 36
23 8 13
23 9 50
23 10 15
23 11 16
23 12 47
23 13 34
23 14 17
23 15 38
23 16 15
23 17 35
23 18 11
23 19 17
23 20 43
23 21 23
23 22 24
24 0 12
24 1 38
24 2 41
24 3 9
24 4 23
24 5 27
24 6 17
24 7 4
24 8 34
24 9 12
24 10 41
24 11 33
24 12 13
24 13 50
24 14 36
24 15 43
24 16 36
24 17 46
24 18 48
24 19 45
24 20 25
24 21 29
24 22 49
24 23 19
25 0 5
25 1 35
25 2 7
25 3 25
25 4 27
25 5 38
25 6 37
25 7 4
25 8 50
25 9 32
25 10 23
25 11 43
25 12 40
25 13 26
25 14 37
25 15 5
25 16 22
25 17 27
25 18 33
25 19 30
25 20 9
25 21 6
25 22 4
25 23 27
25 24 5
26 0 46
26 1 13
26 2 38
26 3 14
26 4 30
26 5 15
26 6 28
26 7 46
26 8 7
26 9 38
26 10 47
26 11 39
26 12 19
26 13 39
26 14 44
26 15 19
26 16 41
26 17 14
26 18 11
26 19 28
26 20 44
26 21 47
26 22 6
26 23 30
26 24 24
26 25 22
27 0 8
27 1 44
27 2 10
27 3 38
27 4 30
27 5 40
27 6 29
27 7 35
27 8 20
27 9 20
27 10 27
27 11 4
27 12 48
27 13 46
27 14 26
27 15 40
27 16 25
27 17 16
27 18 4
27 19 15
27 20 4
27 21 23
27 22 11
27 23 36
27 24 7
27 25 13
27 26 17
28 0 42
28 1 7
28 2 20
28 3 36
28 4 39
28 5 44
28 6 9
28 7 1
28 8 44
28 9 34
28 10 25
28 11 8
28 12 13
28 13 3
28 14 13
28 15 23
28 16 50
28 17 46
28 18 28
28 19 46
28 20 4
28 21 14
28 22 33
28 23 18
28 24 7
28 25 8
28 26 7
28 27 9
29 0 5
29 1 7
29 2 12
29 3 21
29 4 10
29 5 15
29 6 7
29 7 22
29 8 22
29 9 18
29 10 17
29 11 49
29 12 12
29 13 24
29 14 48
29 15 34
29 16 16
29 17 20
29 18 11
29 19 27
29 20 12
29 21 43
29 22 24
29 23 19
29 24 6
29 25 14
29 26 40
29 27 31
29 28 19
30 0 29
30 1 28
30 2 6
30 3 40
30 4 49
30 5 49
30 6 13
30 7 46
30 8 37
30 9 17
30 10 10
30 11 30
30 12 47
30 13 12
30 14 35
30 15 30
30 16 32
30 17 13
30 18 35
30 19 6
30 20 15
30 21 45
30 22 2
30 23 38
30 24 1
30 25 35
30 26 30
30 27 29
30 28 10
30 29 29
31 0 49
31 1 39
31 2 27
31 3 15
31 4 19
31 5 31
31 6 31
31 7 13
31 8 18
31 9 16
31 10 13
31 11 3
31 12 31
31 13 8
31 14 29
31 15 35
31 16 47
31 17 48
31 18 23
31 19 3
31 20 4
31 21 41
31 22 35
31 23 21
31 24 49
31 25 28
31 26 14
31 27 44
31 28 44
31 29 20
31 30 7
32 0 46
32 1 1
32 2 47
32 3 42
32 4 35
32 5 3
32 6 49
32 7 45
32 8 29
32 9 22
32 10 23
32 11 10
32 12 10
32 13 13
32 14 50
32 15 27
32 16 40
32 17 17
32 18 45
32 19 32
32 20 46
32 21 38
32 22 49
32 23 16
32 24 34
32 25 47
32 26 2
32 27 43
32 28 33
32 29 36
32 30 12
32 31 24
33 0 5
33 1 29
33 2 32
33 3 31
33 4 6
33 5 34
33 6 17
33 7 17
33 8 19
33 9 9
33 10 19
33 11 10
33 12 35
33 13 17
33 14 15
33 15 13
33 16 5
33 17 7
33 18 37
33 19 9
33 20 31
33 21 30
33 22 35
33 23 21
33 24 33
33 25 42
33 26 9
33 27 11
33 28 48
33 29 36
33 30 31
33 31 33
33 32 3
34 0 27
34 1 7
34 2 7
34 3 13
34 4 3
34 5 15
34 6 49
34 7 15
34 8 48
34 9 17
34 10 46
34 11 48
34 12 27
34 13 38
34 14 4
34 15 50
34 16 4
34 17 47
34 18 2
34 19 15
34 20 3
34 21 48
34 22 35
34 23 38
34 24 38
34 25 45
34 26 36
34 27 8
34 28 19
34 29 13
34 30 44
34 31 33
34 32 33
34 33 20
35 0 27
35 1 19
35 2 2
35 3 3
35 4 1
35 5 22
35 6 35
35 7 10
35 8 46
35 9 50
35 10 41
35 11 47
35 12 1
35 13 45
35 14 2
35 15 14
35 16 1
35 17 45
35 18 3
35 19 48
35 20 46
35 21 48
35 22 33
35 23 15
35 24 26
35 25 24
35 26 39
35 27 17
35 28 46
35 29 50
35 30 10
35 31 18
35 32 33
35 33 31
35 34 16
36 0 28
36 1 40
36 2 39
36 3 30
36 4 32
36 5 17
36 6 38
36 7 5
36 8 25
36 9 29
36 10 31
36 11 48
36 12 12
36 13 23
36 14 18
36 15 38
36 16 12
36 17 41
36 18 9
36 19 10
36 20 48
36 21 12
36 22 10
36 23 19
36 24 43
36 25 48
36 26 32
36 27 46
36 28 17
36 29 40
36 30 13
36 31 9
36 32 42
36 33 19
36 34 15
36 35 49
37 0 23
37 1 38
37 2 23
37 3 6
37 4 26
37 5 28
37 6 28
37 7 27
37 8 11
37 9 3
37 10 46
37 11 14
37 12 6
37 13 41
37 14 28
37 15 26
37 16 11
37 17 42
37 18 1
37 19 47
37 20 39
37 21 16
37 22 46
37 23 32
37 24 7
37 25 27
37 26 3
37 27 15
37 28 15
37 29 23
37 30 16
37 31 50
37 32 43
37 33 48
37 34 40
37 35 13
37 36 38
